c
c Entrainement avec un petit graphe
c Essai avec 3-COLORATION
c
c 1+3n ; 2+3n ;  3+3n ; couleurs du noeud n 
c couleurs respectives a Bleu; Vert; Rouge pour l'exemple
c
c
c    (1)_____(3)
c     |      /|
c     |     / |
c     |    /  |
c     |   /   |
c     |  /    |
c     | /     |
c     |/      |
c    (2)     (4)
c
c
p cnf 12 28
1 2 3 0
-1 -2 0
-1 -3 0
-2 -3 0
4 5 6 0
-4 -5 0
-4 -6 0
-5 -6 0
7 8 9 0
-7 -8 0
-7 -9 0
-8 -9 0
10 11 12 0
-10 -11 0
-10 -12 0
-11 -12 0
-1 -4 0
-1 -7 0
-4 -7 0
-2 -5 0
-2 -8 0
-5 -8 0
-3 -6 0
-3 -9 0
-6 -9 0
-7 -10 0
-8 -11 0
-9 -12 0
